(set-logic QF_S)
(set-option :parse-transducers true)
(set-option :produce-models true)
(define-fun-rec toLower ((x String) (y String)) Bool
   (or (and (= x "") (= y ""))
       (and (not (= x "")) (not (= y ""))
           (= (char.code (str.head y))
               (ite (and (<= 65 (char.code (str.head x)))
                       (<= (char.code (str.head x)) 90))
                   (+ (char.code (str.head x)) 32)
                   (char.code (str.head x))))
           (toLower (str.tail x) (str.tail y))))
)
(declare-fun r1[$i2] () String)
(declare-fun $r3 () String)
(declare-fun L34  () String)
(declare-fun L25  () String)
(declare-fun L15  () String)
(declare-fun L7  () String)
(declare-fun L5  () String)
(declare-fun L3  () String)
(declare-fun L1  () String)
(declare-fun L27  () String)
(declare-fun L0  () String)
(declare-fun L17  () String)
(assert (toLower "database"  L17 ))
(assert (toLower $r3  L0 ))
(assert (toLower "table"  L27 ))
(assert (toLower "name"  L1 ))
(assert (toLower "length"  L3 ))
(assert (toLower "field"  L5 ))
(assert (toLower "description"  L7 ))
(assert (toLower "type"  L15 ))
(assert (toLower "option"  L25 ))
(assert (toLower r1[$i2]  L34 ))

(assert (not (= L0 L1 )))
(assert (not (= L0 L3 )))
(assert (= L0 L5 ))
(assert (not (= L0 L7 )))
(assert (not (= L0 L1 )))
(assert (not (= L0 L1 )))
(assert (not (= L0 L1 )))
(assert (not (= L0 L15 )))
(assert (= L0 L17 ))
(assert (= L0 L7 ))
(assert (not (= L0 L15 )))
(assert (not (= L0 L3 )))
(assert (= L0 L25 ))
(assert (= L0 L27 ))
(assert (= L0 L5 ))
(assert (not (= L0 L1 )))
(assert (not (= L0 L7 )))
(assert (not (= L34 "html" )))
(assert (not (= L0 L1 )))
(assert (not (= L0 L5 )))
(assert (= L0 L3 ))
(assert (= L0 L7 ))
(assert (not (= L0 L7 )))
(assert (not (= L0 L7 )))
(assert (not (= L0 L7 )))
(assert (= L0 L7 ))
(assert (not (= L0 L1 )))
(assert (= L0 L25 ))
(assert (= L0 L7 ))
(assert (not (= L0 L7 )))
(assert (not (= L0 L15 )))
(assert (= L0 L1 ))
(assert (not (= L0 L1 )))
(assert (not (= L34 "sql" )))
(assert (not (= L0 L15 )))
(assert (not (= L0 L7 )))
(assert (not (= L0 L1 )))
(assert (not (= L0 L7 )))
(assert (= L0 L1 ))
(assert (not (= L0 L27 )))
(assert (= L0 L15 ))
(assert (not (= L0 L7 )))
(assert (not (= L0 L1 )))
(assert (not (= L0 L1 )))
(assert (= L0 L25 ))
(assert (= L0 L1 ))
(assert (= L0 L15 ))
(assert (not (= L0 L7 )))
(assert (= L0 L1 ))
(assert (not (= L0 L7 )))
(assert (not (= L0 L1 )))
(assert (not (= L0 L1 )))
(assert (not (= L0 L1 )))
(assert (not (= L0 L3 )))
(assert (not (= L0 L1 )))
(check-sat)
(get-model)
(exit)
